579954
579954
577605
577605
577605
575882
570209
567832
566460
561319
560953
556361
553312
553312
551929
548714
545840
545840
528272
528272
524867
520672
520672
520672
520672
520672
520672
520672
520672
520672
520672
518903
518903
517532
515726
515726
508742
508742
508742
508742
503370
503370
500448
500448
500448
500448
497886
497886
497886
497886
497886
497886
497886
490825
490825
490825
490237
490237
490237
490237
490237
490237
490237
489890
488464
486812
486812
484500
483507
483507
483507
483507
480487
480487
480487
476184
476184
472376
472376
472376
472376
472376
472376
472376
472376
470622
470622
470622
470577
470577
470577
469698
467986
465243
463488
463488
463488
463488
463488
463488
